NAME: concorde11
TYPE: TSP
COMMENT: Generated by CCutil_writetsplib
COMMENT: Write called for by Concorde GUI
DIMENSION: 11
EDGE_WEIGHT_TYPE: EUC_2D
NODE_COORD_SECTION
1 5.681818 63.860370
3 13.798701 65.092402
5 23.782468 56.262834
7 29.951299 41.683778
9 37.175325 37.577002
11 46.834416 29.979466
